CPXPARAM_Read_DataCheck                          1
Found incumbent of value 0.000000 after 0.00 sec. (0.03 ticks)
Tried aggregator 1 time.
MIP Presolve eliminated 7 rows and 0 columns.
MIP Presolve modified 1 coefficients.
Reduced MIP has 126 rows, 1010 columns, and 4334 nonzeros.
Reduced MIP has 1010 binaries, 0 generals, 0 SOSs, and 0 indicators.
Presolve time = 0.00 sec. (1.89 ticks)
Probing time = 0.00 sec. (2.24 ticks)
Tried aggregator 1 time.
Reduced MIP has 126 rows, 1010 columns, and 4334 nonzeros.
Reduced MIP has 1010 binaries, 0 generals, 0 SOSs, and 0 indicators.
Presolve time = 0.00 sec. (2.07 ticks)
Probing time = 0.00 sec. (2.20 ticks)
Clique table members: 3227.
MIP emphasis: balance optimality and feasibility.
MIP search method: dynamic search.
Parallel mode: deterministic, using up to 4 threads.
Root relaxation solution time = 0.02 sec. (3.11 ticks)

        Nodes                                         Cuts/
   Node  Left     Objective  IInf  Best Integer    Best Bound    ItCnt     Gap

*     0+    0                            0.0000     6334.0000              --- 
*     0+    0                         1075.0000     6334.0000           489.21%
      0     0     3364.2300    11     1075.0000     3364.2300      327  212.95%
      0     0     3284.1058    36     1075.0000     Cuts: 148      377  205.50%
*     0+    0                         1895.0000     3284.1058            73.30%
      0     0     3009.9404   181     1895.0000     Cuts: 145      556   58.84%
      0     0     2712.6853   298     1895.0000     Cuts: 141      784   43.15%
      0     0     2552.6797   308     1895.0000     Cuts: 138     1001   34.71%
*     0+    0                         1986.0000     2552.6797            28.53%
      0     0        cutoff           1986.0000     1986.0000     1334    0.00%
Elapsed time = 0.13 sec. (111.02 ticks, tree = 0.01 MB, solutions = 4)

GUB cover cuts applied:  3
Clique cuts applied:  519
Cover cuts applied:  29
Implied bound cuts applied:  2
Mixed integer rounding cuts applied:  11

Root node processing (before b&c):
  Real time             =    0.13 sec. (111.10 ticks)
Parallel b&c, 4 threads:
  Real time             =    0.00 sec. (0.00 ticks)
  Sync time (average)   =    0.00 sec.
  Wait time (average)   =    0.00 sec.
                          ------------
Total (root+branch&cut) =    0.13 sec. (111.10 ticks)
